(set-logic ALL)
(set-option :produce-models true)
(declare-sort BoundSet 0)
(declare-sort UnboundSet 0)
(set-option :finite-model-find true)
(declare-fun IsDusty (BoundSet) Bool)
(declare-fun RunsAlongPath (BoundSet BoundSet) Bool)
(declare-fun RunsThroughGrass (BoundSet BoundSet) Bool)
(declare-fun IsRunning (BoundSet) Bool)
(declare-fun IsOutside (BoundSet) Bool)
(assert (not (=> (and (exists ((a BoundSet)) (exists ((b BoundSet)) (exists ((c BoundSet)) (and (IsDusty a) (and (RunsAlongPath a b) (RunsThroughGrass a c)))))) (and (forall ((g BoundSet)) (forall ((e BoundSet)) (forall ((f BoundSet)) (=> (RunsAlongPath e f) (IsRunning g))))) (forall ((i BoundSet)) (forall ((h BoundSet)) (forall ((j BoundSet)) (=> (RunsThroughGrass h i) (IsRunning j))))))) (exists ((d BoundSet)) (and (IsOutside d) (IsRunning d))))))
(check-sat)
(get-model)